6 16 4 10
13 12 15 18 16 14 18 4 4 16 15 11 16 19 18 6 
7.13 1.36 6.9 6.39 10.51 0.48 11.28 14.93 0.37 15.45 5.23 0.31 10.06 7.17 4.4 8.94 
13.92 6.78 13.87 13.66 1.87 1.77 7.9 12.38 0.6 5 0.76 5.3 12.39 1.1 14.08 0.27 
2.83 1.61 14.81 15.89 3.14 6.35 7.94 6.94 2.15 1.92 14.94 7.01 7.45 14.86 0.36 6.61 
14.73 13.71 3.83 10.45 10.57 10.76 6.88 5.46 11.31 1.19 5.94 13.32 9.43 0.78 6.21 5.47 
8 8 8 8 8 8 8 8 8 8 8 8 8 8 8 8 
4.02 8.13 1.34 8.14 8.95 14.91 4.91 15.63 11.72 11.09 4.92 7.24 1.21 8.97 0.08 1.46 
1 1 1 1 1 1 1 1 1 1 1 1 1 1 1 1 
1 1 1 1 1 1 1 1 1 1 1 1 1 1 1 1 
1 1 1 1 1 1 1 1 1 1 1 1 1 1 1 1 
1 1 1 1 1 1 1 1 1 1 1 1 1 1 1 1 
1 1 1 1 1 1 1 1 1 1 1 1 1 1 1 1 
1 1 1 1 1 1 1 1 1 1 1 1 1 1 1 1 
0.01 0.01 0.01 0.01 0.01 0.01 0.01 0.01 0.01 0.01 0.01 0.01 0.01 0.01 0.01 0.01 
0.02 0.02 0.02 0.02 0.02 0.02 0.02 0.02 0.02 0.02 0.02 0.02 0.02 0.02 0.02 0.02 
0.03 0.03 0.03 0.03 0.03 0.03 0.03 0.03 0.03 0.03 0.03 0.03 0.03 0.03 0.03 0.03 
0.04 0.04 0.04 0.04 0.04 0.04 0.04 0.04 0.04 0.04 0.04 0.04 0.04 0.04 0.04 0.04 
0.05 0.05 0.05 0.05 0.05 0.05 0.05 0.05 0.05 0.05 0.05 0.05 0.05 0.05 0.05 0.05 
1 1 1 1 1 1 1 1 1 1 1 1 1 1 1 1 
